
Gurobi 12.0.2 (linux64, C++) logging started Thu Jun 19 08:00:19 2025

Set parameter LogFile to value "log/instances/scenario4/fully_correlated_sc4/300/kpfs_1.txt.log"

Gurobi 12.0.2 (linux64, C++) logging started Thu Jun 19 08:01:42 2025

Set parameter LogFile to value "log/instances/scenario4/fully_correlated_sc4/300/kpfs_1.txt.log"

Gurobi 12.0.2 (linux64, C++) logging started Thu Jun 19 08:02:53 2025

Set parameter LogFile to value "log/instances/scenario4/fully_correlated_sc4/300/kpfs_1.txt.log"

Gurobi 12.0.2 (linux64, C++) logging started Thu Jun 19 08:03:57 2025

Set parameter LogFile to value "log/instances/scenario4/fully_correlated_sc4/300/kpfs_1.txt.log"

Gurobi 12.0.2 (linux64, C++) logging started Thu Jun 19 12:37:19 2025

Set parameter WLSAccessID
Set parameter WLSSecret
Set parameter LicenseID to value 2679381
Set parameter LogFile to value "log/instances/scenario4/fully_correlated_sc4/300/kpfs_1.txt.log"
Academic license 2679381 - for non-commercial use only - registered to be___@poli.ufrj.br
Set parameter TimeLimit to value 1800
Set parameter Threads to value 1
Gurobi Optimizer version 12.0.2 build v12.0.2rc0 (linux64 - "Ubuntu 24.04.1 LTS")

CPU model: 13th Gen Intel(R) Core(TM) i7-1355U, instruction set [SSE2|AVX|AVX2]
Thread count: 6 physical cores, 12 logical processors, using up to 1 threads

Non-default parameters:
TimeLimit  1800
Threads  1

Academic license 2679381 - for non-commercial use only - registered to be___@poli.ufrj.br
Optimize a model with 902 rows, 1200 columns and 9739 nonzeros
Model fingerprint: 0x8da0eaaa
Variable types: 0 continuous, 1200 integer (300 binary)
Coefficient statistics:
  Matrix range     [1e+00, 3e+01]
  Objective range  [4e+00, 4e+01]
  Bounds range     [1e+00, 1e+01]
  RHS range        [1e+00, 5e+02]
Found heuristic solution: objective 744.0000000
Presolve removed 1 rows and 105 columns
Presolve time: 0.14s
Presolved: 901 rows, 1095 columns, 9526 nonzeros
Variable types: 0 continuous, 1095 integer (300 binary)

Root relaxation: objective 9.250467e+02, 612 iterations, 0.12 seconds (0.04 work units)

    Nodes    |    Current Node    |     Objective Bounds      |     Work
 Expl Unexpl |  Obj  Depth IntInf | Incumbent    BestBd   Gap | It/Node Time

     0     0  925.04667    0  131  744.00000  925.04667  24.3%     -    0s
H    0     0                     754.0000000  925.04667  22.7%     -    0s
H    0     0                     778.0000000  925.04667  18.9%     -    0s
H    0     0                     799.0000000  925.04667  15.8%     -    0s
H    0     0                     801.0000000  925.04667  15.5%     -    0s
H    0     0                     806.0000000  925.04667  14.8%     -    0s
H    0     0                     844.0000000  925.04667  9.60%     -    0s
H    0     0                     846.0000000  925.04667  9.34%     -    0s
H    0     0                     865.0000000  925.04667  6.94%     -    0s
H    0     0                     874.0000000  925.04667  5.84%     -    0s
H    0     0                     880.0000000  925.04667  5.12%     -    0s
     0     0  923.92600    0  132  880.00000  923.92600  4.99%     -    0s
H    0     0                     890.0000000  923.88719  3.81%     -    1s
     0     0  923.70376    0  132  890.00000  923.70376  3.79%     -    1s
     0     0  923.63682    0  138  890.00000  923.63682  3.78%     -    2s
     0     0  923.63455    0  136  890.00000  923.63455  3.78%     -    2s
     0     0  923.60267    0  141  890.00000  923.60267  3.78%     -    2s
     0     0  923.59813    0  139  890.00000  923.59813  3.78%     -    2s
     0     0  923.58045    0  139  890.00000  923.58045  3.77%     -    2s
     0     0  923.57464    0  141  890.00000  923.57464  3.77%     -    2s
     0     0  923.57178    0  141  890.00000  923.57178  3.77%     -    2s
     0     2  923.55514    0  141  890.00000  923.55514  3.77%     -    3s
    46    48  912.83733   35   97  890.00000  923.32112  3.74%  51.1    5s
H  209   187                     893.0000000  923.30300  3.39%  30.4    7s
H  209   184                     895.0000000  923.30300  3.16%  30.4    7s
   419   343  902.31021   18  113  895.00000  921.24231  2.93%  33.4   10s
   587   464  907.26340   13  133  895.00000  920.91093  2.90%  35.3   15s
   727   516  909.53641   24  115  895.00000  920.91093  2.90%  43.6   20s
  1015   602  904.23688   26  103  895.00000  917.72867  2.54%  50.2   25s
  1496   678  902.45052   26  104  895.00000  915.47408  2.29%  49.8   30s
  2120   809  896.60651   29   88  895.00000  913.06903  2.02%  49.2   35s
  2403   922  897.55223   26  100  895.00000  912.55636  1.96%  49.0   40s
H 2958   780                     900.0000000  911.22791  1.25%  48.0   45s
  3332   806  906.67469   27   99  900.00000  910.31028  1.15%  48.0   50s
  4159   831  903.63293   25   92  900.00000  908.80633  0.98%  47.1   55s
  5124   841  901.33219   34   98  900.00000  907.52036  0.84%  46.2   60s
  6317   700  901.52213   24   98  900.00000  905.84026  0.65%  45.4   65s
  7192   473  903.62408   29   83  900.00000  904.31581  0.48%  44.5   70s
  7639   321  901.99386   33   94  900.00000  903.44743  0.38%  43.8   75s

Cutting planes:
  Gomory: 7
  Flow cover: 2
  Zero half: 9
  RLT: 1

Explored 8100 nodes (346845 simplex iterations) in 76.96 seconds (26.30 work units)
Thread count was 1 (of 12 available processors)

Solution count 10: 900 895 893 ... 806

Optimal solution found (tolerance 1.00e-04)
Best objective 9.000000000000e+02, best bound 9.000000000000e+02, gap 0.0000%
